NAME : mcpfd.-154825.tour
COMMENT : Length = -154825
COMMENT : Found by LKH [Keld Helsgaun] Thu Sep 19 22:29:23 2024
TYPE : TOUR
DIMENSION : 120
TOUR_SECTION
1
56
107
26
66
71
78
120
39
48
58
60
64
102
2
46
98
7
43
51
82
35
109
6
52
84
22
41
89
3
67
79
53
42
87
5
106
33
54
97
16
104
37
113
12
55
72
92
15
49
86
25
88
9
47
57
77
110
18
93
36
99
24
61
73
108
28
65
76
115
10
91
38
119
29
94
40
80
101
30
62
105
31
118
19
90
27
100
32
95
21
116
4
85
11
68
112
34
44
59
63
74
83
8
45
114
14
70
96
20
103
23
117
13
111
17
75
50
69
81
-1
EOF
